3 
4  42 56 
5  11 30 45 
6  09 24 39 54 
7  09 24 39 54 
8  09 24 39 54 
9  09 24 39 54 
10  09 24 39 54 
11  09 24 39 54 
12  09 24 39 54 
13  09 24 39 54 
14  09 24 39 54 
15  09 24 39 54 
16  09 24 39 54 
17  09 24 39 54 
18  09 25 40 54 
19  09 24 39 54 
20  09 24 39 54 
21  09 24 39 54 
22  09 24 42 57 
23  15 
0 
